unknown
(model
; cardinality of BoundSet is 3
(declare-sort BoundSet 0)
; rep: @uc_BoundSet_0
; rep: @uc_BoundSet_1
; rep: @uc_BoundSet_2
; cardinality of UnboundSet is 1
(declare-sort UnboundSet 0)
(declare-fun groundTerm_4 () UnboundSet)
(define-fun IsInOrangeShirt ((BOUND_VARIABLE_454 BoundSet)) Bool true)
(define-fun ManeuversSkateboard ((BOUND_VARIABLE_454 BoundSet)) Bool true)
(define-fun IsAtTopOfRamp ((BOUND_VARIABLE_454 BoundSet)) Bool true)
(define-fun RidesSkateboard ((BOUND_VARIABLE_454 BoundSet)) Bool false)
)
unsat
(error "Cannot get model unless immediately preceded by SAT/NOT_ENTAILED or UNKNOWN response.")
